certificates/rado_a13_c102_N26.drat
-24 -26 0
-9 -25 0
d -9 -10 -25 0
-8 -9 0
-26 0
24 0
-9 0
11 0
-8 0
6 0
10 0
23 0
7 0
-17 0
-18 0
-21 0
-22 0
-12 0
-13 0
19 0
15 0
2 0
20 0
16 0
3 0
14 0
-4 0
-5 0
0
